 Code  1831
 Dimension, Fixed Cost
   100        3000
 Facility, Client, Transportation Cost
     1       20           3
     1       32           0
     1       64           3
     1       66           0
     1       73           2
     1       79           3
     1       81           2
     1       83           0
     1       89           2
     1       94           1
     2        4           1
     2       12           4
     2       26           0
     2       35           4
     2       36           3
     2       51           3
     2       54           4
     2       58           0
     2       68           1
     2       99           4
     3        6           4
     3       24           1
     3       26           4
     3       39           4
     3       44           3
     3       47           3
     3       61           0
     3       85           1
     3       91           0
     3       98           4
     4        5           0
     4       16           3
     4       28           4
     4       36           4
     4       37           0
     4       43           1
     4       53           2
     4       61           2
     4       76           0
     4       88           2
     5        5           2
     5        8           0
     5       13           0
     5       17           4
     5       30           0
     5       31           1
     5       37           2
     5       64           4
     5       84           0
     5       90           0
     6       22           4
     6       29           4
     6       32           4
     6       37           3
     6       40           2
     6       46           2
     6       60           3
     6       86           4
     6       88           1
     6       94           1
     7       13           1
     7       21           2
     7       30           2
     7       33           3
     7       64           1
     7       75           4
     7       76           1
     7       80           2
     7       84           0
     7       89           4
     8        6           3
     8        8           2
     8       20           2
     8       22           4
     8       35           0
     8       42           2
     8       44           2
     8       53           2
     8       54           3
     8       68           1
     9        1           1
     9        2           4
     9       12           1
     9       18           3
     9       21           2
     9       57           1
     9       59           0
     9       61           0
     9       99           3
     9      100           0
    10        7           2
    10       18           2
    10       32           4
    10       45           0
    10       62           4
    10       68           2
    10       75           1
    10       76           0
    10       93           2
    10       97           4
    11        3           3
    11        7           2
    11       31           0
    11       40           1
    11       64           4
    11       67           2
    11       71           3
    11       73           4
    11       78           3
    11       93           3
    12        3           0
    12       17           1
    12       21           0
    12       22           1
    12       40           2
    12       55           1
    12       63           3
    12       75           3
    12       82           0
    12       93           1
    13        5           3
    13       15           3
    13       31           4
    13       49           2
    13       71           1
    13       72           0
    13       76           0
    13       94           0
    13       97           3
    13       98           0
    14        4           3
    14       18           0
    14       20           1
    14       24           3
    14       33           4
    14       36           2
    14       51           1
    14       55           2
    14       81           3
    14      100           0
    15        1           4
    15       21           3
    15       25           1
    15       39           2
    15       41           2
    15       61           3
    15       63           1
    15       65           1
    15       79           2
    15       99           3
    16        9           0
    16       44           0
    16       50           3
    16       53           4
    16       57           4
    16       83           3
    16       86           3
    16       89           4
    16       90           0
    16       95           3
    17        3           3
    17       12           4
    17       24           3
    17       55           4
    17       60           1
    17       62           2
    17       65           1
    17       84           2
    17       85           0
    17       88           1
    18       21           3
    18       28           3
    18       33           1
    18       34           4
    18       45           0
    18       51           0
    18       63           3
    18       72           2
    18       87           1
    18       91           0
    19        5           0
    19        7           0
    19       13           1
    19       17           4
    19       44           0
    19       53           0
    19       58           0
    19       95           0
    19       97           2
    19       99           4
    20       17           0
    20       18           4
    20       28           1
    20       42           1
    20       43           3
    20       47           1
    20       52           2
    20       58           3
    20       61           2
    20       90           3
    21       27           2
    21       35           4
    21       45           2
    21       70           0
    21       71           1
    21       74           0
    21       88           0
    21       89           4
    21       93           0
    21       96           0
    22        7           2
    22       22           1
    22       34           4
    22       54           0
    22       59           3
    22       62           4
    22       67           1
    22       88           1
    22       89           2
    22       97           4
    23        6           4
    23        9           3
    23       14           3
    23       29           4
    23       44           0
    23       55           1
    23       75           1
    23       77           4
    23       78           1
    23       81           2
    24        6           1
    24       22           4
    24       34           0
    24       36           4
    24       45           1
    24       57           1
    24       64           2
    24       66           0
    24       83           1
    24       87           1
    25        9           1
    25       11           3
    25       18           0
    25       23           0
    25       27           1
    25       31           4
    25       81           0
    25       95           1
    25       96           2
    25      100           0
    26       11           2
    26       22           4
    26       25           0
    26       35           4
    26       57           0
    26       60           4
    26       63           4
    26       71           3
    26       91           2
    26       93           1
    27        6           1
    27       19           1
    27       33           1
    27       36           0
    27       41           2
    27       44           0
    27       58           0
    27       83           4
    27       92           0
    27       99           4
    28        3           1
    28       23           2
    28       25           3
    28       27           3
    28       46           0
    28       53           0
    28       64           4
    28       69           1
    28       88           2
    28       98           3
    29       12           2
    29       13           0
    29       42           1
    29       58           4
    29       69           2
    29       75           4
    29       82           3
    29       83           4
    29       86           4
    29       92           3
    30        1           3
    30       11           2
    30       20           3
    30       25           1
    30       28           0
    30       29           4
    30       35           0
    30       55           3
    30       71           1
    30       87           3
    31       11           2
    31       19           3
    31       25           4
    31       26           3
    31       31           1
    31       37           3
    31       49           1
    31       68           4
    31       77           1
    31       88           2
    32        8           2
    32       26           1
    32       40           4
    32       45           0
    32       58           1
    32       85           3
    32       86           4
    32       89           2
    32       94           3
    32       96           0
    33        3           4
    33       17           4
    33       28           2
    33       29           3
    33       38           0
    33       47           3
    33       58           4
    33       67           0
    33       72           3
    33       75           2
    34        1           1
    34       23           4
    34       26           1
    34       31           3
    34       37           2
    34       40           4
    34       59           3
    34       64           3
    34       81           4
    34       86           4
    35        3           4
    35        6           1
    35       30           3
    35       34           4
    35       40           4
    35       44           2
    35       68           3
    35       71           0
    35       77           0
    35       90           4
    36        5           4
    36        9           1
    36       12           4
    36       13           0
    36       19           4
    36       29           4
    36       46           4
    36       78           3
    36       81           0
    36      100           0
    37       16           3
    37       18           1
    37       28           0
    37       29           3
    37       52           1
    37       54           3
    37       64           2
    37       69           2
    37       76           1
    37       91           2
    38       11           0
    38       29           2
    38       30           3
    38       61           0
    38       62           1
    38       63           0
    38       64           3
    38       83           2
    38       87           0
    38       91           1
    39       12           3
    39       18           0
    39       19           0
    39       22           4
    39       47           4
    39       75           0
    39       79           3
    39       82           2
    39       90           0
    39       96           0
    40       10           0
    40       29           4
    40       31           3
    40       43           4
    40       60           2
    40       69           2
    40       73           0
    40       81           2
    40       90           3
    40       98           1
    41       17           2
    41       18           1
    41       19           4
    41       21           3
    41       25           1
    41       60           3
    41       67           2
    41       70           1
    41       71           1
    41       77           4
    42        4           1
    42        7           1
    42        8           3
    42       46           4
    42       51           3
    42       53           2
    42       60           2
    42       63           0
    42       99           0
    42      100           4
    43        8           3
    43       14           3
    43       19           2
    43       42           4
    43       49           1
    43       62           2
    43       65           1
    43       78           3
    43       86           2
    43       92           3
    44       22           2
    44       34           3
    44       49           4
    44       65           4
    44       67           1
    44       71           0
    44       85           3
    44       86           0
    44       93           0
    44       96           3
    45        2           3
    45       25           1
    45       30           4
    45       36           1
    45       46           0
    45       52           1
    45       53           0
    45       77           2
    45       95           2
    45       96           0
    46        2           1
    46        9           4
    46       10           0
    46       13           2
    46       24           1
    46       26           3
    46       30           4
    46       43           1
    46       51           3
    46       66           2
    47        7           1
    47       12           1
    47       27           2
    47       33           1
    47       35           0
    47       40           4
    47       41           2
    47       77           3
    47       92           4
    47       94           2
    48       21           1
    48       42           0
    48       47           4
    48       52           4
    48       53           4
    48       72           1
    48       78           2
    48       91           0
    48       94           2
    48       96           2
    49       15           4
    49       17           3
    49       23           0
    49       38           0
    49       46           2
    49       55           3
    49       77           3
    49       79           0
    49       85           2
    49       95           4
    50        2           0
    50        4           4
    50        5           4
    50       14           4
    50       28           3
    50       36           1
    50       61           2
    50       82           3
    50       86           2
    50       91           0
    51        1           2
    51        2           0
    51        5           4
    51        7           1
    51       12           2
    51       19           3
    51       20           0
    51       55           4
    51       88           0
    51       96           1
    52        2           2
    52       31           3
    52       35           0
    52       50           2
    52       53           3
    52       58           0
    52       61           2
    52       65           0
    52       77           1
    52       98           1
    53        7           4
    53        9           4
    53       32           3
    53       43           0
    53       53           0
    53       69           4
    53       71           4
    53       72           3
    53       81           3
    53       83           2
    54       17           2
    54       21           2
    54       38           4
    54       39           3
    54       45           3
    54       46           2
    54       68           4
    54       73           2
    54       79           2
    54       95           1
    55        1           3
    55        2           0
    55       15           3
    55       44           1
    55       51           3
    55       54           4
    55       66           0
    55       83           4
    55       95           1
    55      100           1
    56       25           2
    56       38           4
    56       45           1
    56       49           3
    56       53           3
    56       66           0
    56       69           0
    56       81           1
    56       83           3
    56       84           3
    57        3           4
    57        7           2
    57       12           1
    57       17           3
    57       29           1
    57       37           3
    57       49           4
    57       65           0
    57       78           0
    57       93           3
    58        2           0
    58        5           2
    58       23           0
    58       34           1
    58       41           0
    58       43           1
    58       52           4
    58       64           1
    58       67           4
    58       70           0
    59       10           4
    59       16           3
    59       26           2
    59       48           2
    59       60           0
    59       74           2
    59       80           1
    59       82           3
    59       84           3
    59       88           4
    60        2           4
    60        6           3
    60       22           3
    60       29           2
    60       38           4
    60       62           0
    60       77           0
    60       81           1
    60       86           3
    60       87           3
    61        5           2
    61       36           2
    61       40           4
    61       46           0
    61       55           4
    61       59           3
    61       62           0
    61       67           4
    61       94           4
    61      100           3
    62       13           1
    62       14           3
    62       28           0
    62       42           3
    62       45           0
    62       64           0
    62       66           3
    62       77           2
    62       82           1
    62       96           0
    63       14           2
    63       27           1
    63       29           2
    63       39           0
    63       54           0
    63       55           4
    63       62           1
    63       70           4
    63       71           1
    63       91           1
    64       11           2
    64       28           3
    64       41           3
    64       47           3
    64       49           1
    64       52           2
    64       73           3
    64       83           4
    64       84           2
    64       89           4
    65        5           4
    65        8           1
    65        9           3
    65       10           0
    65       40           3
    65       46           2
    65       48           1
    65       52           3
    65       83           3
    65       94           0
    66       28           3
    66       41           0
    66       42           0
    66       50           0
    66       77           3
    66       79           2
    66       84           2
    66       86           0
    66       93           2
    66       94           4
    67       16           2
    67       18           2
    67       33           0
    67       66           3
    67       81           4
    67       83           3
    67       91           0
    67       93           3
    67       96           4
    67       97           4
    68        6           4
    68       20           4
    68       31           2
    68       34           2
    68       48           3
    68       52           2
    68       60           4
    68       70           1
    68       72           1
    68       76           1
    69       33           2
    69       44           2
    69       49           0
    69       52           1
    69       54           0
    69       55           4
    69       60           2
    69       66           0
    69       79           4
    69       87           4
    70        4           4
    70       30           1
    70       32           2
    70       37           0
    70       46           0
    70       58           2
    70       63           2
    70       79           2
    70       91           0
    70       93           3
    71        8           1
    71       32           3
    71       38           4
    71       44           2
    71       55           0
    71       64           4
    71       75           4
    71       82           3
    71       83           2
    71       99           2
    72        1           0
    72        2           2
    72       28           0
    72       43           2
    72       48           3
    72       56           1
    72       69           3
    72       75           4
    72       79           4
    72       88           2
    73        2           3
    73        9           4
    73       25           1
    73       28           0
    73       43           2
    73       55           3
    73       57           4
    73       74           2
    73       77           2
    73       94           0
    74        2           4
    74        5           0
    74       18           1
    74       20           2
    74       27           0
    74       28           0
    74       85           1
    74       89           1
    74       94           1
    74       98           0
    75        2           0
    75        5           4
    75       11           4
    75       27           1
    75       46           0
    75       49           3
    75       56           3
    75       76           1
    75       79           0
    75       90           0
    76       12           3
    76       18           4
    76       20           0
    76       26           0
    76       35           4
    76       36           3
    76       53           4
    76       57           4
    76       79           4
    76       87           2
    77        2           0
    77       21           4
    77       25           2
    77       35           1
    77       41           4
    77       43           1
    77       55           0
    77       64           3
    77       70           3
    77       98           1
    78        3           1
    78       13           4
    78       14           2
    78       26           4
    78       69           2
    78       73           3
    78       84           4
    78       89           2
    78       94           4
    78       95           4
    79        5           1
    79       19           1
    79       26           2
    79       40           3
    79       46           3
    79       49           1
    79       68           4
    79       73           0
    79       79           4
    79       91           3
    80       30           1
    80       44           2
    80       46           0
    80       48           3
    80       67           4
    80       70           1
    80       80           1
    80       92           3
    80       94           0
    80       95           0
    81       11           2
    81       37           3
    81       66           2
    81       72           4
    81       76           2
    81       77           1
    81       84           3
    81       87           4
    81       89           3
    81      100           4
    82       15           2
    82       25           1
    82       61           1
    82       67           1
    82       72           4
    82       78           1
    82       88           2
    82       93           2
    82       96           4
    82       99           3
    83        5           4
    83       15           3
    83       36           0
    83       37           4
    83       61           1
    83       66           0
    83       67           0
    83       68           4
    83       93           4
    83       94           2
    84       13           0
    84       40           4
    84       41           3
    84       55           1
    84       74           1
    84       77           2
    84       78           2
    84       79           1
    84       86           4
    84       89           0
    85        1           1
    85        9           4
    85       21           2
    85       35           0
    85       36           1
    85       37           3
    85       52           3
    85       55           1
    85       71           2
    85       81           3
    86       12           1
    86       16           4
    86       33           2
    86       37           0
    86       38           1
    86       43           2
    86       61           3
    86       76           2
    86       93           3
    86       99           0
    87       12           2
    87       15           1
    87       25           1
    87       40           4
    87       43           3
    87       44           3
    87       68           2
    87       87           3
    87       89           4
    87       91           1
    88        7           4
    88        9           4
    88       16           1
    88       18           0
    88       30           2
    88       34           1
    88       40           1
    88       62           4
    88       80           1
    88       98           4
    89        3           3
    89        9           1
    89       18           0
    89       29           4
    89       32           0
    89       44           3
    89       48           3
    89       62           4
    89       83           4
    89       84           4
    90       14           2
    90       19           1
    90       20           1
    90       27           0
    90       47           0
    90       63           2
    90       72           3
    90       80           1
    90       87           1
    90       90           0
    91       15           3
    91       19           1
    91       26           3
    91       54           4
    91       55           3
    91       59           2
    91       73           3
    91       80           0
    91       81           0
    91       88           4
    92       14           2
    92       17           0
    92       23           0
    92       36           0
    92       43           0
    92       51           2
    92       84           3
    92       85           0
    92       93           0
    92       94           4
    93       10           1
    93       24           1
    93       25           1
    93       35           4
    93       45           0
    93       47           1
    93       57           1
    93       64           2
    93       88           4
    93       96           4
    94        8           3
    94       10           1
    94       16           4
    94       17           3
    94       27           0
    94       33           1
    94       42           0
    94       74           3
    94       82           0
    94       83           3
    95       18           3
    95       29           0
    95       34           0
    95       44           2
    95       56           3
    95       62           4
    95       66           2
    95       69           0
    95       84           4
    95       94           2
    96        7           2
    96       12           4
    96       22           3
    96       23           0
    96       29           3
    96       43           4
    96       58           0
    96       88           2
    96       90           2
    96       96           1
    97        3           1
    97       28           4
    97       33           3
    97       36           1
    97       50           2
    97       54           2
    97       65           2
    97       66           2
    97       67           0
    97       92           0
    98        3           0
    98        7           2
    98       11           4
    98       19           1
    98       32           1
    98       33           0
    98       43           2
    98       46           4
    98       48           1
    98       66           2
    99       10           4
    99       32           4
    99       34           3
    99       41           1
    99       43           3
    99       44           0
    99       46           0
    99       50           4
    99       69           2
    99       82           4
   100        5           0
   100       12           4
   100       22           4
   100       50           1
   100       53           1
   100       54           1
   100       55           3
   100       91           4
   100       94           2
   100      100           2
